4 
5  17 32 47 
6  04 19 34 49 
7  04 20 35 50 
8  05 20 35 50 
9  05 20 35 50 
10  05 20 35 50 
11  05 20 35 50 
12  05 20 35 50 
13  05 20 35 50 
14  05 25 40 55 
15  10 25 40 55 
16  10 25 40 55 
17  10 25 43 
18  00 15 31 47 
19  01 16 31 46 
20  01 16 31 46 
21  
22 
